c description: Random 3-CNF over 14 variables and 42 clauses
p cnf 14 42
-4 11 -13 0
-5 -7 9 0
5 -7 10 0
-5 12 -14 0
-2 -3 -9 0
-7 -9 -12 0
2 5 7 0
1 7 9 0
2 9 11 0
1 2 -12 0
3 6 -8 0
-4 -8 -14 0
-1 8 -13 0
-2 -7 -12 0
-3 -4 -7 0
2 -4 14 0
-2 3 -14 0
-2 -12 14 0
-3 -8 -14 0
1 -3 -11 0
4 -10 13 0
-1 -11 12 0
-3 -7 -11 0
-5 8 -13 0
-1 -10 14 0
1 -2 14 0
-1 -6 11 0
-1 -9 -10 0
4 -10 -14 0
2 -3 4 0
-2 4 -13 0
7 9 -10 0
-6 -9 -14 0
-3 4 9 0
-6 9 11 0
-7 9 12 0
-2 6 12 0
1 11 12 0
-5 -8 9 0
-1 -7 -10 0
3 4 9 0
-1 -2 -4 0